% File represents an instance of a Composite Structure problem to be solved by a CP framework
% Created on 2025-03-26 10:41:38.803
T = 50;
n = 25;
m = 40;
edges = [(1, 2),
(6, 7),
(11, 12),
(17, 16),
(22, 21),
(2, 3),
(7, 8),
(12, 13),
(17, 18),
(22, 23),
(4, 3),
(8, 9),
(14, 13),
(19, 18),
(24, 23),
(5, 4),
(10, 9),
(15, 14),
(20, 19),
(25, 24),
(6, 1),
(6, 11),
(11, 16),
(16, 21),
(7, 2),
(7, 12),
(17, 12),
(17, 22),
(8, 3),
(8, 13),
(13, 18),
(18, 23),
(4, 9),
(14, 9),
(14, 19),
(19, 24),
(5, 10),
(15, 10),
(20, 15),
(20, 25)];
counts = [|4, 16, 4, 20,
|4, 16, 4, 14,
|4, 14, 4, 10,
|4, 16, 4, 14,
|4, 16, 4, 18,
|6, 18, 6, 20,
|4, 16, 4, 20,
|4, 14, 4, 16,
|4, 14, 4, 14,
|4, 16, 4, 16,
|6, 18, 6, 14,
|4, 16, 4, 14,
|4, 14, 4, 14,
|4, 16, 4, 16,
|4, 18, 4, 16,
|4, 18, 4, 12,
|4, 18, 4, 14,
|4, 14, 4, 12,
|4, 16, 4, 14,
|4, 20, 4, 16,
|4, 14, 4, 10,
|4, 18, 4, 10,
|4, 14, 4, 10,
|4, 16, 4, 10,
|4, 20, 4, 12|];
